NAME : a280
COMMENT : Tour length 3190
TYPE : TOUR
DIMENSION : 280
TOUR_SECTION
1
2
280
3
279
278
277
276
275
274
273
272
271
16
17
18
133
132
19
20
21
130
131
129
128
127
126
125
30
31
32
33
34
35
36
37
38
39
40
41
42
43
60
61
118
117
115
114
113
87
84
85
65
64
66
67
70
71
72
73
74
75
76
77
78
79
80
81
82
83
88
112
111
110
108
104
105
106
107
173
174
161
162
163
164
165
166
167
168
169
101
100
99
98
93
94
95
96
97
92
91
90
89
109
103
102
170
171
172
175
160
159
158
157
119
120
121
122
123
124
154
155
153
156
152
151
177
176
181
180
179
178
150
149
139
138
137
267
266
140
141
148
147
142
143
144
145
146
199
200
201
196
195
194
197
198
202
203
204
205
206
207
210
211
212
213
214
215
216
217
218
219
220
221
222
223
224
225
226
227
228
229
230
251
250
247
244
241
240
239
238
231
246
245
243
242
248
249
256
255
252
209
208
253
254
257
258
259
260
261
262
263
264
265
268
136
135
134
270
269
15
13
12
11
10
8
7
9
6
5
4
14
24
23
25
22
26
27
28
29
49
48
47
46
55
54
53
52
51
50
45
44
59
58
57
56
68
69
63
62
116
86
182
183
184
185
187
186
190
189
188
191
192
193
234
233
232
237
236
235
1
-1
EOF